C101

VEHICLE
NUMBER     CAPACITY
  3         40

CUSTOMER
CUST NO.  XCOORD.   YCOORD.    DEMAND   READY TIME  DUE DATE   SERVICE   TIME
 
    0      40         50          0          0       400          0   
    1      45         68         10        20        150         90   
    2      45         70         30        50        200         90   
    3      42         66         10         100        300       90    

